ITEM = 1..15;
capacity1 = 216;
capacity2 = 220;
capacity3 = 183;
profits = [970, 371, 154, 742, 857, 825, 858, 323, 748, 747, 240, 624, 727, 606, 644];
weights = [68, 12, 26, 24, 14, 30, 85, 34, 95, 13, 34, 82, 23, 11, 60];
